data/CVRPLIB/Vrp-Set-XML100/instances/XML100_3315_17.vrp
NAME : XML100_3315_17
COMMENT : Generated by Queiroga, Sadykov, Uchoa, and Vidal (2021)
TYPE : CVRP
DIMENSION : 101
EDGE_WEIGHT_TYPE : EUC_2D
CAPACITY : 22
NODE_COORD_SECTION
1    0    0   
2    421  548 
3    664  900 
4    80   673 
5    835  189 
6    363  684 
7    152  31  
8    820  144 
9    530  133 
10   662  751 
11   350  106 
12   576  744 
13   888  130 
14   443  704 
15   830  129 
16   535  565 
17   981  682 
18   434  680 
19   754  826 
20   856  298 
21   882  97  
22   366  427 
23   924  876 
24   314  635 
25   154  641 
26   315  754 
27   509  640 
28   786  307 
29   1000 209 
30   730  203 
31   668  44  
32   523  646 
33   829  689 
34   473  592 
35   457  93  
36   334  607 
37   267  555 
38   482  674 
39   647  637 
40   889  708 
41   471  619 
42   790  60  
43   996  732 
44   971  584 
45   208  702 
46   837  146 
47   272  546 
48   599  163 
49   436  711 
50   357  630 
51   319  478 
52   410  687 
53   819  159 
54   432  171 
55   177  966 
56   494  645 
57   866  624 
58   147  432 
59   253  610 
60   641  743 
61   697  649 
62   902  709 
63   917  693 
64   836  140 
65   350  139 
66   767  536 
67   327  873 
68   898  181 
69   566  559 
70   246  563 
71   25   107 
72   676  54  
73   599  761 
74   470  739 
75   608  411 
76   628  554 
77   248  675 
78   536  652 
79   165  855 
80   700  498 
81   260  860 
82   868  168 
83   200  979 
84   859  834 
85   742  122 
86   697  177 
87   619  84  
88   941  829 
89   966  890 
90   767  171 
91   550  607 
92   774  99  
93   449  394 
94   817  754 
95   407  478 
96   591  322 
97   58   922 
98   22   590 
99   218  606 
100  905  798 
101  930  474 
DEMAND_SECTION
1    0   
2    1   
3    1   
4    1   
5    1   
6    1   
7    1   
8    1   
9    1   
10   1   
11   1   
12   1   
13   1   
14   1   
15   1   
16   1   
17   1   
18   1   
19   1   
20   1   
21   1   
22   1   
23   1   
24   1   
25   1   
26   1   
27   1   
28   1   
29   1   
30   1   
31   1   
32   1   
33   1   
34   1   
35   1   
36   1   
37   1   
38   1   
39   1   
40   1   
41   1   
42   1   
43   1   
44   1   
45   1   
46   1   
47   1   
48   1   
49   1   
50   1   
51   1   
52   1   
53   1   
54   1   
55   1   
56   1   
57   1   
58   1   
59   1   
60   1   
61   1   
62   1   
63   1   
64   1   
65   1   
66   1   
67   1   
68   1   
69   1   
70   1   
71   1   
72   1   
73   1   
74   1   
75   1   
76   1   
77   1   
78   1   
79   1   
80   1   
81   1   
82   1   
83   1   
84   1   
85   1   
86   1   
87   1   
88   1   
89   1   
90   1   
91   1   
92   1   
93   1   
94   1   
95   1   
96   1   
97   1   
98   1   
99   1   
100  1   
101  1   
DEPOT_SECTION
1
-1
EOF
