data/CVRPLIB/Vrp-Set-XML100/solutions/XML100_3315_17.sol
Route #1: 70 57 24 44 76 25 66 80 82 54 96 78 3 97
Route #2: 10 8 47 85 29 27 19 100 43 16 42 62 61 39 32 56 65 79 74 95 53 64
Route #3: 6 34 86 84 89 52 7 14 63 45 4 81 67 28 12 20 41 91 71 30
Route #4: 50 1 33 40 55 26 31 37 73 48 13 17 51 5 49 35 23 58 98 69 36 46
Route #5: 21 94 15 90 77 11 72 59 9 2 18 83 22 88 87 99 93 60 38 75 68 92
Cost 12389
